(set-logic ALL)
(declare-const n_VAR Int)
(assert (< 3 n_VAR))
(assert (< 4 n_VAR))
(assert (< 5 n_VAR))
(assert (< 6 n_VAR))
(assert (< 7 n_VAR))
(assert (< 8 n_VAR))
(assert (< 9 n_VAR))
(assert (< 10 n_VAR))
(assert (< 11 n_VAR))
(assert (< 12 n_VAR))
(assert (< 13 n_VAR))
(assert (< 14 n_VAR))
(assert (< 15 n_VAR))
(assert (< 16 n_VAR))
(assert (< 17 n_VAR))
(assert (< 18 n_VAR))
(assert (< 19 n_VAR))
(assert (< 20 n_VAR))
(assert (< 21 n_VAR))
(assert (< 22 n_VAR))
(assert (< 23 n_VAR))
(assert (< 24 n_VAR))
(assert (< 25 n_VAR))
(assert (< 26 n_VAR))
(assert (< 27 n_VAR))
(assert (< 28 n_VAR))
(assert (< 29 n_VAR))
(assert (< 30 n_VAR))
(assert (< 31 n_VAR))
(assert (< 32 n_VAR))
(assert (< 33 n_VAR))
(assert (< 34 n_VAR))
(assert (< 35 n_VAR))
(assert (< 36 n_VAR))
(assert (< 37 n_VAR))
(assert (< 38 n_VAR))
(assert (< 39 n_VAR))
(assert (< 40 n_VAR))
(assert (< 41 n_VAR))
(assert (< 42 n_VAR))
(assert (< 43 n_VAR))
(assert (< 44 n_VAR))
(assert (< 45 n_VAR))
(assert (< 46 n_VAR))
(assert (< 47 n_VAR))
(assert (< 48 n_VAR))
(assert (< 49 n_VAR))
(assert (< 50 n_VAR))
(assert (< 51 n_VAR))
(assert (< 52 n_VAR))
(assert (< 53 n_VAR))
(assert (< 54 n_VAR))
(assert (< 55 n_VAR))
(assert (< 56 n_VAR))
(assert (< 57 n_VAR))
(assert (< 58 n_VAR))
(assert (< 59 n_VAR))
(assert (< 60 n_VAR))
(assert (< 61 n_VAR))
(assert (< 62 n_VAR))
(assert (< 63 n_VAR))
(assert (< 64 n_VAR))
(assert (< 65 n_VAR))
(assert (< 66 n_VAR))
(assert (< 67 n_VAR))
(assert (< 68 n_VAR))
(assert (< 69 n_VAR))
(assert (< 70 n_VAR))
(assert (< 71 n_VAR))
(assert (< 72 n_VAR))
(assert (< 73 n_VAR))
(assert (< 74 n_VAR))
(assert (< 75 n_VAR))
(assert (< 76 n_VAR))
(assert (< 77 n_VAR))
(assert (< 78 n_VAR))
(assert (< 79 n_VAR))
(assert (< 80 n_VAR))
(assert (< 81 n_VAR))
(assert (< 82 n_VAR))
(assert (< 83 n_VAR))
(assert (< 84 n_VAR))
(assert (< 85 n_VAR))
(assert (< 86 n_VAR))
(assert (< 87 n_VAR))
(assert (< 88 n_VAR))
(assert (< 89 n_VAR))
(assert (< 90 n_VAR))
(assert (< 91 n_VAR))
(assert (< 92 n_VAR))
(assert (< 93 n_VAR))
(assert (< 94 n_VAR))
(assert (< 95 n_VAR))
(assert (< 96 n_VAR))
(assert (< 97 n_VAR))
(assert (< 98 n_VAR))
(assert (< 99 n_VAR))
(assert (< 100 n_VAR))
(assert (< 101 n_VAR))
(assert (< 102 n_VAR))
(assert (< 103 n_VAR))
(assert (< 104 n_VAR))
(assert (< 105 n_VAR))
(assert (< 106 n_VAR))
(assert (< 107 n_VAR))
(assert (< 108 n_VAR))
(assert (< 109 n_VAR))
(assert (< 110 n_VAR))
(assert (< 111 n_VAR))
(assert (< 112 n_VAR))
(assert (< 113 n_VAR))
(assert (< 114 n_VAR))
(assert (< 115 n_VAR))
(assert (< 116 n_VAR))
(assert (< 117 n_VAR))
(assert (< 118 n_VAR))
(assert (< 119 n_VAR))
(assert (< 120 n_VAR))
(assert (< 121 n_VAR))
(assert (< 122 n_VAR))
(assert (< 123 n_VAR))
(assert (< 124 n_VAR))
(assert (< 125 n_VAR))
(assert (< 126 n_VAR))
(assert (< 127 n_VAR))
(assert (< 128 n_VAR))
(assert (< 129 n_VAR))
(assert (< 130 n_VAR))
(assert (< 131 n_VAR))
(assert (< 132 n_VAR))
(assert (< 133 n_VAR))
(assert (< 134 n_VAR))
(assert (< 135 n_VAR))
(assert (< 136 n_VAR))
(assert (< 137 n_VAR))
(assert (< 138 n_VAR))
(assert (< 139 n_VAR))
(assert (< 140 n_VAR))
(assert (< 141 n_VAR))
(assert (< 142 n_VAR))
(assert (< 143 n_VAR))
(assert (< 144 n_VAR))
(assert (< 145 n_VAR))
(assert (< 146 n_VAR))
(assert (< 147 n_VAR))
(assert (< 148 n_VAR))
(assert (< 149 n_VAR))
(assert (< 150 n_VAR))
(assert (< 151 n_VAR))
(assert (< 152 n_VAR))
(assert (< 153 n_VAR))
(assert (< 154 n_VAR))
(assert (< 155 n_VAR))
(assert (< 156 n_VAR))
(assert (< 157 n_VAR))
(assert (< 158 n_VAR))
(assert (< 159 n_VAR))
(assert (< 160 n_VAR))
(assert (< 161 n_VAR))
(assert (< 162 n_VAR))
(assert (< 163 n_VAR))
(assert (< 164 n_VAR))
(assert (< 165 n_VAR))
(assert (< 166 n_VAR))
(assert (< 167 n_VAR))
(assert (< 168 n_VAR))
(assert (< 169 n_VAR))
(assert (< 170 n_VAR))
(assert (< 171 n_VAR))
(assert (< 172 n_VAR))
(assert (< 173 n_VAR))
(assert (< 174 n_VAR))
(assert (< 175 n_VAR))
(assert (< 176 n_VAR))
(assert (< 177 n_VAR))
(assert (< 178 n_VAR))
(assert (< 179 n_VAR))
(assert (< 180 n_VAR))
(assert (< 181 n_VAR))
(assert (< 182 n_VAR))
(assert (< 183 n_VAR))
(assert (< 184 n_VAR))
(assert (< 185 n_VAR))
(check-sat)
(get-value (n_VAR))
